letting n_nurses=25
letting n_days=7
letting n_shift_types=4
letting max_covers=7
letting t_covers=87
letting covers=[7,7,3,0,2,7,6,0,6,5,3,0,7,7,3,0,2,2,1,0,1,1,0,0,7,7,3,0]
letting prefes=[3,2,3,3,2,1,1,1,3,2,3,3,2,1,1,1,1,1,1,1,2,1,1,1,2,1,1,1,1,1,1,1,2,1,1,1,1,1,1,1,2,1,1,1,1,1,1,1,2,1,1,1,2,1,1,1,1,2,1,1,2,1,1,1,1,2,1,1,2,1,1,1,1,1,1,1,2,1,1,1,2,1,1,1,3,2,3,3,3,1,1,1,3,2,3,3,3,1,1,1,4,1,4,1,3,1,1,1,3,1,1,1,1,1,1,1,1,4,4,4,1,1,1,1,1,4,4,4,1,4,1,4,1,4,4,4,1,4,4,4,1,4,1,1,2,1,1,1,1,4,1,1,2,1,1,1,1,1,1,1,2,1,1,1,2,1,1,1,3,2,3,3,1,4,4,4,3,2,3,3,1,4,4,4,3,4,4,4,1,4,4,4,1,4,4,4,3,2,3,3,1,4,4,4,3,2,3,3,1,4,4,4,4,4,1,4,1,4,4,4,1,4,4,4,3,1,3,3,1,1,1,1,3,1,3,3,1,1,1,1,1,1,1,1,1,1,1,1,1,1,1,1,4,1,4,4,2,1,1,1,4,1,4,4,2,1,1,1,1,1,4,1,2,1,1,1,2,1,1,1,1,2,1,1,1,1,1,1,1,2,1,1,1,1,1,1,3,1,1,1,1,1,1,1,1,1,1,1,1,1,1,1,3,1,1,1,1,1,1,1,3,1,1,1,4,1,1,1,3,1,1,1,3,1,1,1,3,1,3,3,1,4,4,4,3,1,3,3,1,4,4,4,4,4,4,4,1,4,4,4,1,4,4,4,1,3,1,1,1,4,4,4,1,3,1,1,1,4,4,4,1,4,4,4,1,4,4,4,1,4,4,4,3,2,3,3,1,1,1,1,3,2,3,3,1,1,1,1,1,1,1,1,1,1,1,1,1,1,1,1,3,2,3,3,1,2,2,2,3,2,3,3,1,2,2,2,4,2,1,2,1,2,2,2,1,2,2,2,3,1,3,3,1,4,4,4,3,1,3,3,1,4,4,4,1,4,4,4,1,4,4,4,1,4,4,4,1,1,1,1,2,1,1,1,1,1,1,1,2,1,1,1,1,1,2,1,2,1,1,1,2,1,1,1,1,2,1,1,2,2,2,2,1,2,1,1,2,2,2,2,4,2,4,2,2,2,2,2,2,2,2,2,1,1,1,1,2,4,4,4,1,1,1,1,2,4,4,4,4,4,1,4,2,4,4,4,2,4,4,4,3,3,3,3,2,4,4,4,3,3,3,3,2,4,4,4,4,4,4,4,2,4,4,4,2,4,4,4,3,2,3,3,1,1,1,1,3,2,3,3,1,1,1,1,4,1,1,1,1,1,1,1,1,1,1,1,2,1,2,2,2,2,2,2,2,1,2,2,2,2,2,2,1,2,2,2,2,2,2,2,2,2,2,2,4,1,4,4,3,1,1,1,4,1,4,4,3,1,1,1,4,1,1,1,3,1,1,1,3,1,1,1,3,2,3,3,2,4,4,4,3,2,3,3,2,4,4,4,3,4,2,4,2,4,4,4,2,4,4,4]
letting ub =  243
